rust/resources/mps/output2_1.mps
NAME        output2_1
ROWS
 N  obj
 L  cons0
 G  cons0_low
 L  cons1
 G  cons1_low
 L  cons2
 G  cons2_low
COLUMNS
    x0        obj       2.1
    x0        cons0     1
    x0        cons0_low  1
    x1        obj       1000
    x1        cons0     1
    x1        cons0_low  1
    x2        obj       2.2
    x2        cons1     1
    x2        cons1_low  1
    x3        obj       1000
    x3        cons1     1
    x3        cons1_low  1
    x4        obj       2.3
    x4        cons2     1
    x4        cons2_low  1
    x5        obj       1000
    x5        cons2     1
    x5        cons2_low  1
RHS
    RHS_V     cons0     21.1
    RHS_V     cons1     22.2
    RHS_V     cons2     23.3
BOUNDS
 UP BOUND     x0        21.1
 UP BOUND     x2        22.2
 UP BOUND     x4        23.3
ENDATA
